language Essence 1.3

letting blksize_delta be
        function(1 --> 6, 2 --> 4, 3 --> 5, 4 --> 6, 5 --> 6, 6 --> 5, 7 --> 6, 8 --> 5, 9 --> 6, 10 --> 5, 11 --> 5,
                 12 --> 4, 13 --> 5, 14 --> 6, 15 --> 6, 16 --> 4, 17 --> 4)
letting maxcars be
        function(1 --> 9, 2 --> 10, 3 --> 9, 4 --> 10, 5 --> 10, 6 --> 9, 7 --> 9, 8 --> 9, 9 --> 10, 10 --> 10,
                 11 --> 10, 12 --> 10, 13 --> 10, 14 --> 10, 15 --> 10, 16 --> 9, 17 --> 10)
letting n_cars be 69
letting n_classes be 20
letting n_options be 17
letting quantity be
        function(1 --> 3, 2 --> 8, 3 --> 4, 4 --> 6, 5 --> 3, 6 --> 3, 7 --> 3, 8 --> 3, 9 --> 3, 10 --> 3, 11 --> 3,
                 12 --> 3, 13 --> 3, 14 --> 3, 15 --> 3, 16 --> 3, 17 --> 3, 18 --> 3, 19 --> 3, 20 --> 3)
letting usage be
        relation((1, 1), (1, 2), (1, 7), (1, 8), (1, 9), (1, 11), (1, 12), (1, 14), (2, 1), (2, 4), (2, 6), (2, 8),
                 (2, 9), (2, 11), (2, 12), (2, 13), (2, 14), (3, 1), (3, 2), (3, 5), (3, 6), (3, 7), (3, 8), (3, 9),
                 (3, 11), (4, 2), (4, 3), (4, 4), (4, 7), (4, 9), (4, 16), (5, 2), (5, 4), (5, 10), (5, 11), (5, 13),
                 (5, 16), (6, 3), (6, 6), (6, 7), (6, 8), (6, 11), (6, 12), (6, 13), (6, 15), (6, 16), (6, 17), (7, 1),
                 (7, 6), (7, 9), (7, 11), (7, 13), (7, 14), (7, 16), (8, 1), (8, 6), (8, 8), (8, 11), (8, 14), (8, 15),
                 (9, 2), (9, 3), (9, 4), (9, 5), (9, 6), (9, 8), (9, 11), (10, 1), (10, 2), (10, 3), (10, 10), (10, 13),
                 (10, 14), (10, 16), (11, 2), (11, 3), (11, 6), (11, 8), (11, 9), (11, 10), (11, 11), (11, 15),
                 (11, 16), (11, 17), (12, 2), (12, 14), (13, 1), (13, 3), (13, 4), (13, 6), (13, 9), (13, 10), (13, 11),
                 (13, 14), (13, 16), (14, 1), (14, 5), (14, 6), (14, 7), (14, 15), (14, 16), (15, 1), (15, 4), (15, 5),
                 (15, 8), (15, 10), (15, 13), (15, 17), (16, 1), (16, 9), (16, 10), (16, 12), (16, 15), (16, 16),
                 (17, 1), (17, 3), (17, 4), (17, 7), (17, 12), (17, 14), (17, 15), (18, 1), (18, 2), (18, 6), (18, 7),
                 (18, 9), (18, 10), (18, 11), (18, 14), (18, 15), (18, 16), (19, 2), (19, 8), (19, 10), (19, 11),
                 (19, 12), (19, 15), (20, 2), (20, 3), (20, 4), (20, 6), (20, 8), (20, 12), (20, 13), (20, 14))
$ Visualisation for usage
$  1  1
$  1  2
$  1  7
$  1  8
$  1  9
$  1 11
$  1 12
$  1 14
$  2  1
$  2  4
$  2  6
$  2  8
$  2  9
$  2 11
$  2 12
$  2 13
$  2 14
$  3  1
$  3  2
$  3  5
$  3  6
$  3  7
$  3  8
$  3  9
$  3 11
$  4  2
$  4  3
$  4  4
$  4  7
$  4  9
$  4 16
$  5  2
$  5  4
$  5 10
$  5 11
$  5 13
$  5 16
$  6  3
$  6  6
$  6  7
$  6  8
$  6 11
$  6 12
$  6 13
$  6 15
$  6 16
$  6 17
$  7  1
$  7  6
$  7  9
$  7 11
$  7 13
$  7 14
$  7 16
$  8  1
$  8  6
$  8  8
$  8 11
$  8 14
$  8 15
$  9  2
$  9  3
$  9  4
$  9  5
$  9  6
$  9  8
$  9 11
$ 10  1
$ 10  2
$ 10  3
$ 10 10
$ 10 13
$ 10 14
$ 10 16
$ 11  2
$ 11  3
$ 11  6
$ 11  8
$ 11  9
$ 11 10
$ 11 11
$ 11 15
$ 11 16
$ 11 17
$ 12  2
$ 12 14
$ 13  1
$ 13  3
$ 13  4
$ 13  6
$ 13  9
$ 13 10
$ 13 11
$ 13 14
$ 13 16
$ 14  1
$ 14  5
$ 14  6
$ 14  7
$ 14 15
$ 14 16
$ 15  1
$ 15  4
$ 15  5
$ 15  8
$ 15 10
$ 15 13
$ 15 17
$ 16  1
$ 16  9
$ 16 10
$ 16 12
$ 16 15
$ 16 16
$ 17  1
$ 17  3
$ 17  4
$ 17  7
$ 17 12
$ 17 14
$ 17 15
$ 18  1
$ 18  2
$ 18  6
$ 18  7
$ 18  9
$ 18 10
$ 18 11
$ 18 14
$ 18 15
$ 18 16
$ 19  2
$ 19  8
$ 19 10
$ 19 11
$ 19 12
$ 19 15
$ 20  2
$ 20  3
$ 20  4
$ 20  6
$ 20  8
$ 20 12
$ 20 13
$ 20 14

